param fuelCost:  1  2  3  4  5  6  7  8  9  10  11  12  13  14  15  16  17  18  19 :=
1  100  8  6  3  6  3  6  6  9  10  6  9  8  6  10  8  2  7  4
2  8  100  7  8  6  10  8  9  10  7  8  10  5  5  10  4  10  2  10
3  6  7  100  3  9  8  5  4  3  8  10  10  10  4  9  5  7  7  5
4  3  8  3  100  9  6  4  7  10  4  7  10  3  2  6  10  5  4  2
5  6  6  9  9  100  10  6  2  2  2  10  9  4  8  8  2  10  7  7
6  3  10  8  6  10  100  9  3  9  2  8  4  5  8  8  7  4  6  3
7  6  8  5  4  6  9  100  5  6  5  5  5  4  9  9  6  6  7  9
8  6  9  4  7  2  3  5  100  10  4  7  7  8  7  5  10  10  8  9
9  9  10  3  10  2  9  6  10  100  7  9  10  7  6  8  10  8  2  6
10  10  7  8  4  2  2  5  4  7  100  7  4  4  9  4  6  3  3  3
11  6  8  10  7  10  8  5  7  9  7  100  5  4  6  5  9  5  2  4
12  9  10  10  10  9  4  5  7  10  4  5  100  9  8  6  9  7  3  2
13  8  5  10  3  4  5  4  8  7  4  4  9  100  10  9  8  9  10  3
14  6  5  4  2  8  8  9  7  6  9  6  8  10  100  5  7  3  5  2
15  10  10  9  6  8  8  9  5  8  4  5  6  9  5  100  5  9  2  3
16  8  4  5  10  2  7  6  10  10  6  9  9  8  7  5  100  6  9  6
17  2  10  7  5  10  4  6  10  8  3  5  7  9  3  9  6  100  4  10
18  7  2  7  4  7  6  7  8  2  3  2  3  10  5  2  9  4  100  6
19  4  10  5  2  7  3  9  9  6  3  4  2  3  2  3  6  10  6  100
;
param timeCost:  1  2  3  4  5  6  7  8  9  10  11  12  13  14  15  16  17  18  19 :=
1  100  6  100  100  100  5  2  100  100  100  100  100  3  100  100  100  100  100  8
2  6  100  4  100  100  100  100  100  100  8  100  100  100  100  100  100  100  100  100
3  100  4  100  3  100  100  100  100  100  100  100  5  100  100  3  100  100  100  100
4  100  100  3  100  3  100  100  100  100  100  100  100  100  100  100  8  100  100  100
5  100  100  100  3  100  7  100  100  10  100  8  100  100  100  2  100  100  100  100
6  5  100  100  100  7  100  3  100  100  100  100  100  100  100  100  100  100  100  100
7  2  100  100  100  100  3  100  6  100  100  100  100  100  100  100  100  100  100  100
8  100  100  100  100  100  100  6  100  4  100  100  100  100  100  100  100  100  7  100
9  100  100  100  100  10  100  100  4  100  4  2  100  100  100  100  100  7  100  100
10  100  8  100  100  100  100  100  100  4  100  6  100  100  100  100  5  100  100  100
11  100  100  100  100  8  100  100  100  2  6  100  5  100  9  10  100  100  100  100
12  100  100  5  100  100  100  100  100  100  100  5  100  4  9  100  5  100  7  100
13  3  100  100  100  100  100  100  100  100  100  100  4  100  10  10  100  100  100  100
14  100  100  100  100  100  100  100  100  100  100  9  9  10  100  4  100  3  100  100
15  100  100  3  100  2  100  100  100  100  100  10  100  10  4  100  2  100  100  100
16  100  100  100  8  100  100  100  100  100  5  100  5  100  100  2  100  8  100  100
17  100  100  100  100  100  100  100  100  7  100  100  100  100  3  100  8  100  5  100
18  100  100  100  100  100  100  100  7  100  100  100  7  100  100  100  100  5  100  10
19  8  100  100  100  100  100  100  100  100  100  100  100  100  100  100  100  100  10  100
;
param mst:  1  2  3  4  5  6  7  8  9  10  11  12  13  14  15  16  17  18  19 :=
1  .  0  0  0  0  0  1  0  0  0  0  0  1  0  0  0  0  0  1
2  .  .  1  0  0  0  0  0  0  0  0  0  0  0  0  0  0  0  0
3  .  .  .  1  0  0  0  0  0  0  0  1  0  0  1  0  0  0  0
4  .  .  .  .  0  0  0  0  0  0  0  0  0  0  0  0  0  0  0
5  .  .  .  .  .  0  0  0  0  0  0  0  0  0  1  0  0  0  0
6  .  .  .  .  .  .  1  0  0  0  0  0  0  0  0  0  0  0  0
7  .  .  .  .  .  .  .  0  0  0  0  0  0  0  0  0  0  0  0
8  .  .  .  .  .  .  .  .  1  0  0  0  0  0  0  0  0  0  0
9  .  .  .  .  .  .  .  .  .  1  1  0  0  0  0  0  0  0  0
10  .  .  .  .  .  .  .  .  .  .  0  0  0  0  0  1  0  0  0
11  .  .  .  .  .  .  .  .  .  .  .  0  0  0  0  0  0  0  0
12  .  .  .  .  .  .  .  .  .  .  .  .  1  0  0  0  0  0  0
13  .  .  .  .  .  .  .  .  .  .  .  .  .  0  0  0  0  0  0
14  .  .  .  .  .  .  .  .  .  .  .  .  .  .  1  0  1  0  0
15  .  .  .  .  .  .  .  .  .  .  .  .  .  .  .  1  0  0  0
16  .  .  .  .  .  .  .  .  .  .  .  .  .  .  .  .  0  0  0
17  .  .  .  .  .  .  .  .  .  .  .  .  .  .  .  .  .  1  0
18  .  .  .  .  .  .  .  .  .  .  .  .  .  .  .  .  .  .  0
19  .  .  .  .  .  .  .  .  .  .  .  .  .  .  .  .  .  .  .
;
param mstHalf:  1  2  3  4  5  6  7  8  9  10  11  12  13  14  15  16  17  18  19 :=
1  .  0  0  0  0  0  1  0  0  0  0  0  1  0  0  0  0  0  0
2  .  .  0  0  0  0  0  0  0  0  0  0  0  0  0  0  0  0  0
3  .  .  .  1  0  0  0  0  0  0  0  0  0  0  1  0  0  0  0
4  .  .  .  .  0  0  0  0  0  0  0  0  0  0  0  0  0  0  0
5  .  .  .  .  .  0  0  0  0  0  0  0  0  0  1  0  0  0  0
6  .  .  .  .  .  .  1  0  0  0  0  0  0  0  0  0  0  0  0
7  .  .  .  .  .  .  .  0  0  0  0  0  0  0  0  0  0  0  0
8  .  .  .  .  .  .  .  .  0  0  0  0  0  0  0  0  0  0  0
9  .  .  .  .  .  .  .  .  .  0  1  0  0  0  0  0  0  0  0
10  .  .  .  .  .  .  .  .  .  .  0  0  0  0  0  0  0  0  0
11  .  .  .  .  .  .  .  .  .  .  .  0  0  0  0  0  0  0  0
12  .  .  .  .  .  .  .  .  .  .  .  .  0  0  0  0  0  0  0
13  .  .  .  .  .  .  .  .  .  .  .  .  .  0  0  0  0  0  0
14  .  .  .  .  .  .  .  .  .  .  .  .  .  .  0  0  1  0  0
15  .  .  .  .  .  .  .  .  .  .  .  .  .  .  .  1  0  0  0
16  .  .  .  .  .  .  .  .  .  .  .  .  .  .  .  .  0  0  0
17  .  .  .  .  .  .  .  .  .  .  .  .  .  .  .  .  .  0  0
18  .  .  .  .  .  .  .  .  .  .  .  .  .  .  .  .  .  .  0
19  .  .  .  .  .  .  .  .  .  .  .  .  .  .  .  .  .  .  .
;
param mstEdges:  1  2 :=
1  1  7
2  5  15
3  9  11
4  15  16
5  1  13
6  3  4
7  3  15
8  6  7
9  14  17
10  2  3
11  8  9
12  9  10
13  12  13
14  14  15
15  3  12
16  10  16
17  17  18
18  1  19
;
